33D32945 STP File, STP Format Version 1.0

SECTION Comment 
Name "hc8u" 
Creator ""  
Remark "prize version of Rosseti et al. hypercube graphs"  
END 

SECTION Graph
Nodes 256
Edges 1024
E 1 129 1.000000
E 1 65 1.000000
E 1 33 1.000000
E 1 17 1.000000
E 1 9 1.000000
E 1 5 1.000000
E 1 3 1.000000
E 1 2 1.000000
E 2 130 1.000000
E 2 66 1.000000
E 2 34 1.000000
E 2 18 1.000000
E 2 10 1.000000
E 2 6 1.000000
E 2 4 1.000000
E 3 131 1.000000
E 3 67 1.000000
E 3 35 1.000000
E 3 19 1.000000
E 3 11 1.000000
E 3 7 1.000000
E 3 4 1.000000
E 4 132 1.000000
E 4 68 1.000000
E 4 36 1.000000
E 4 20 1.000000
E 4 12 1.000000
E 4 8 1.000000
E 5 133 1.000000
E 5 69 1.000000
E 5 37 1.000000
E 5 21 1.000000
E 5 13 1.000000
E 5 7 1.000000
E 5 6 1.000000
E 6 134 1.000000
E 6 70 1.000000
E 6 38 1.000000
E 6 22 1.000000
E 6 14 1.000000
E 6 8 1.000000
E 7 135 1.000000
E 7 71 1.000000
E 7 39 1.000000
E 7 23 1.000000
E 7 15 1.000000
E 7 8 1.000000
E 8 136 1.000000
E 8 72 1.000000
E 8 40 1.000000
E 8 24 1.000000
E 8 16 1.000000
E 9 137 1.000000
E 9 73 1.000000
E 9 41 1.000000
E 9 25 1.000000
E 9 13 1.000000
E 9 11 1.000000
E 9 10 1.000000
E 10 138 1.000000
E 10 74 1.000000
E 10 42 1.000000
E 10 26 1.000000
E 10 14 1.000000
E 10 12 1.000000
E 11 139 1.000000
E 11 75 1.000000
E 11 43 1.000000
E 11 27 1.000000
E 11 15 1.000000
E 11 12 1.000000
E 12 140 1.000000
E 12 76 1.000000
E 12 44 1.000000
E 12 28 1.000000
E 12 16 1.000000
E 13 141 1.000000
E 13 77 1.000000
E 13 45 1.000000
E 13 29 1.000000
E 13 15 1.000000
E 13 14 1.000000
E 14 142 1.000000
E 14 78 1.000000
E 14 46 1.000000
E 14 30 1.000000
E 14 16 1.000000
E 15 143 1.000000
E 15 79 1.000000
E 15 47 1.000000
E 15 31 1.000000
E 15 16 1.000000
E 16 144 1.000000
E 16 80 1.000000
E 16 48 1.000000
E 16 32 1.000000
E 17 145 1.000000
E 17 81 1.000000
E 17 49 1.000000
E 17 25 1.000000
E 17 21 1.000000
E 17 19 1.000000
E 17 18 1.000000
E 18 146 1.000000
E 18 82 1.000000
E 18 50 1.000000
E 18 26 1.000000
E 18 22 1.000000
E 18 20 1.000000
E 19 147 1.000000
E 19 83 1.000000
E 19 51 1.000000
E 19 27 1.000000
E 19 23 1.000000
E 19 20 1.000000
E 20 148 1.000000
E 20 84 1.000000
E 20 52 1.000000
E 20 28 1.000000
E 20 24 1.000000
E 21 149 1.000000
E 21 85 1.000000
E 21 53 1.000000
E 21 29 1.000000
E 21 23 1.000000
E 21 22 1.000000
E 22 150 1.000000
E 22 86 1.000000
E 22 54 1.000000
E 22 30 1.000000
E 22 24 1.000000
E 23 151 1.000000
E 23 87 1.000000
E 23 55 1.000000
E 23 31 1.000000
E 23 24 1.000000
E 24 152 1.000000
E 24 88 1.000000
E 24 56 1.000000
E 24 32 1.000000
E 25 153 1.000000
E 25 89 1.000000
E 25 57 1.000000
E 25 29 1.000000
E 25 27 1.000000
E 25 26 1.000000
E 26 154 1.000000
E 26 90 1.000000
E 26 58 1.000000
E 26 30 1.000000
E 26 28 1.000000
E 27 155 1.000000
E 27 91 1.000000
E 27 59 1.000000
E 27 31 1.000000
E 27 28 1.000000
E 28 156 1.000000
E 28 92 1.000000
E 28 60 1.000000
E 28 32 1.000000
E 29 157 1.000000
E 29 93 1.000000
E 29 61 1.000000
E 29 31 1.000000
E 29 30 1.000000
E 30 158 1.000000
E 30 94 1.000000
E 30 62 1.000000
E 30 32 1.000000
E 31 159 1.000000
E 31 95 1.000000
E 31 63 1.000000
E 31 32 1.000000
E 32 160 1.000000
E 32 96 1.000000
E 32 64 1.000000
E 33 161 1.000000
E 33 97 1.000000
E 33 49 1.000000
E 33 41 1.000000
E 33 37 1.000000
E 33 35 1.000000
E 33 34 1.000000
E 34 162 1.000000
E 34 98 1.000000
E 34 50 1.000000
E 34 42 1.000000
E 34 38 1.000000
E 34 36 1.000000
E 35 163 1.000000
E 35 99 1.000000
E 35 51 1.000000
E 35 43 1.000000
E 35 39 1.000000
E 35 36 1.000000
E 36 164 1.000000
E 36 100 1.000000
E 36 52 1.000000
E 36 44 1.000000
E 36 40 1.000000
E 37 165 1.000000
E 37 101 1.000000
E 37 53 1.000000
E 37 45 1.000000
E 37 39 1.000000
E 37 38 1.000000
E 38 166 1.000000
E 38 102 1.000000
E 38 54 1.000000
E 38 46 1.000000
E 38 40 1.000000
E 39 167 1.000000
E 39 103 1.000000
E 39 55 1.000000
E 39 47 1.000000
E 39 40 1.000000
E 40 168 1.000000
E 40 104 1.000000
E 40 56 1.000000
E 40 48 1.000000
E 41 169 1.000000
E 41 105 1.000000
E 41 57 1.000000
E 41 45 1.000000
E 41 43 1.000000
E 41 42 1.000000
E 42 170 1.000000
E 42 106 1.000000
E 42 58 1.000000
E 42 46 1.000000
E 42 44 1.000000
E 43 171 1.000000
E 43 107 1.000000
E 43 59 1.000000
E 43 47 1.000000
E 43 44 1.000000
E 44 172 1.000000
E 44 108 1.000000
E 44 60 1.000000
E 44 48 1.000000
E 45 173 1.000000
E 45 109 1.000000
E 45 61 1.000000
E 45 47 1.000000
E 45 46 1.000000
E 46 174 1.000000
E 46 110 1.000000
E 46 62 1.000000
E 46 48 1.000000
E 47 175 1.000000
E 47 111 1.000000
E 47 63 1.000000
E 47 48 1.000000
E 48 176 1.000000
E 48 112 1.000000
E 48 64 1.000000
E 49 177 1.000000
E 49 113 1.000000
E 49 57 1.000000
E 49 53 1.000000
E 49 51 1.000000
E 49 50 1.000000
E 50 178 1.000000
E 50 114 1.000000
E 50 58 1.000000
E 50 54 1.000000
E 50 52 1.000000
E 51 179 1.000000
E 51 115 1.000000
E 51 59 1.000000
E 51 55 1.000000
E 51 52 1.000000
E 52 180 1.000000
E 52 116 1.000000
E 52 60 1.000000
E 52 56 1.000000
E 53 181 1.000000
E 53 117 1.000000
E 53 61 1.000000
E 53 55 1.000000
E 53 54 1.000000
E 54 182 1.000000
E 54 118 1.000000
E 54 62 1.000000
E 54 56 1.000000
E 55 183 1.000000
E 55 119 1.000000
E 55 63 1.000000
E 55 56 1.000000
E 56 184 1.000000
E 56 120 1.000000
E 56 64 1.000000
E 57 185 1.000000
E 57 121 1.000000
E 57 61 1.000000
E 57 59 1.000000
E 57 58 1.000000
E 58 186 1.000000
E 58 122 1.000000
E 58 62 1.000000
E 58 60 1.000000
E 59 187 1.000000
E 59 123 1.000000
E 59 63 1.000000
E 59 60 1.000000
E 60 188 1.000000
E 60 124 1.000000
E 60 64 1.000000
E 61 189 1.000000
E 61 125 1.000000
E 61 63 1.000000
E 61 62 1.000000
E 62 190 1.000000
E 62 126 1.000000
E 62 64 1.000000
E 63 191 1.000000
E 63 127 1.000000
E 63 64 1.000000
E 64 192 1.000000
E 64 128 1.000000
E 65 193 1.000000
E 65 97 1.000000
E 65 81 1.000000
E 65 73 1.000000
E 65 69 1.000000
E 65 67 1.000000
E 65 66 1.000000
E 66 194 1.000000
E 66 98 1.000000
E 66 82 1.000000
E 66 74 1.000000
E 66 70 1.000000
E 66 68 1.000000
E 67 195 1.000000
E 67 99 1.000000
E 67 83 1.000000
E 67 75 1.000000
E 67 71 1.000000
E 67 68 1.000000
E 68 196 1.000000
E 68 100 1.000000
E 68 84 1.000000
E 68 76 1.000000
E 68 72 1.000000
E 69 197 1.000000
E 69 101 1.000000
E 69 85 1.000000
E 69 77 1.000000
E 69 71 1.000000
E 69 70 1.000000
E 70 198 1.000000
E 70 102 1.000000
E 70 86 1.000000
E 70 78 1.000000
E 70 72 1.000000
E 71 199 1.000000
E 71 103 1.000000
E 71 87 1.000000
E 71 79 1.000000
E 71 72 1.000000
E 72 200 1.000000
E 72 104 1.000000
E 72 88 1.000000
E 72 80 1.000000
E 73 201 1.000000
E 73 105 1.000000
E 73 89 1.000000
E 73 77 1.000000
E 73 75 1.000000
E 73 74 1.000000
E 74 202 1.000000
E 74 106 1.000000
E 74 90 1.000000
E 74 78 1.000000
E 74 76 1.000000
E 75 203 1.000000
E 75 107 1.000000
E 75 91 1.000000
E 75 79 1.000000
E 75 76 1.000000
E 76 204 1.000000
E 76 108 1.000000
E 76 92 1.000000
E 76 80 1.000000
E 77 205 1.000000
E 77 109 1.000000
E 77 93 1.000000
E 77 79 1.000000
E 77 78 1.000000
E 78 206 1.000000
E 78 110 1.000000
E 78 94 1.000000
E 78 80 1.000000
E 79 207 1.000000
E 79 111 1.000000
E 79 95 1.000000
E 79 80 1.000000
E 80 208 1.000000
E 80 112 1.000000
E 80 96 1.000000
E 81 209 1.000000
E 81 113 1.000000
E 81 89 1.000000
E 81 85 1.000000
E 81 83 1.000000
E 81 82 1.000000
E 82 210 1.000000
E 82 114 1.000000
E 82 90 1.000000
E 82 86 1.000000
E 82 84 1.000000
E 83 211 1.000000
E 83 115 1.000000
E 83 91 1.000000
E 83 87 1.000000
E 83 84 1.000000
E 84 212 1.000000
E 84 116 1.000000
E 84 92 1.000000
E 84 88 1.000000
E 85 213 1.000000
E 85 117 1.000000
E 85 93 1.000000
E 85 87 1.000000
E 85 86 1.000000
E 86 214 1.000000
E 86 118 1.000000
E 86 94 1.000000
E 86 88 1.000000
E 87 215 1.000000
E 87 119 1.000000
E 87 95 1.000000
E 87 88 1.000000
E 88 216 1.000000
E 88 120 1.000000
E 88 96 1.000000
E 89 217 1.000000
E 89 121 1.000000
E 89 93 1.000000
E 89 91 1.000000
E 89 90 1.000000
E 90 218 1.000000
E 90 122 1.000000
E 90 94 1.000000
E 90 92 1.000000
E 91 219 1.000000
E 91 123 1.000000
E 91 95 1.000000
E 91 92 1.000000
E 92 220 1.000000
E 92 124 1.000000
E 92 96 1.000000
E 93 221 1.000000
E 93 125 1.000000
E 93 95 1.000000
E 93 94 1.000000
E 94 222 1.000000
E 94 126 1.000000
E 94 96 1.000000
E 95 223 1.000000
E 95 127 1.000000
E 95 96 1.000000
E 96 224 1.000000
E 96 128 1.000000
E 97 225 1.000000
E 97 113 1.000000
E 97 105 1.000000
E 97 101 1.000000
E 97 99 1.000000
E 97 98 1.000000
E 98 226 1.000000
E 98 114 1.000000
E 98 106 1.000000
E 98 102 1.000000
E 98 100 1.000000
E 99 227 1.000000
E 99 115 1.000000
E 99 107 1.000000
E 99 103 1.000000
E 99 100 1.000000
E 100 228 1.000000
E 100 116 1.000000
E 100 108 1.000000
E 100 104 1.000000
E 101 229 1.000000
E 101 117 1.000000
E 101 109 1.000000
E 101 103 1.000000
E 101 102 1.000000
E 102 230 1.000000
E 102 118 1.000000
E 102 110 1.000000
E 102 104 1.000000
E 103 231 1.000000
E 103 119 1.000000
E 103 111 1.000000
E 103 104 1.000000
E 104 232 1.000000
E 104 120 1.000000
E 104 112 1.000000
E 105 233 1.000000
E 105 121 1.000000
E 105 109 1.000000
E 105 107 1.000000
E 105 106 1.000000
E 106 234 1.000000
E 106 122 1.000000
E 106 110 1.000000
E 106 108 1.000000
E 107 235 1.000000
E 107 123 1.000000
E 107 111 1.000000
E 107 108 1.000000
E 108 236 1.000000
E 108 124 1.000000
E 108 112 1.000000
E 109 237 1.000000
E 109 125 1.000000
E 109 111 1.000000
E 109 110 1.000000
E 110 238 1.000000
E 110 126 1.000000
E 110 112 1.000000
E 111 239 1.000000
E 111 127 1.000000
E 111 112 1.000000
E 112 240 1.000000
E 112 128 1.000000
E 113 241 1.000000
E 113 121 1.000000
E 113 117 1.000000
E 113 115 1.000000
E 113 114 1.000000
E 114 242 1.000000
E 114 122 1.000000
E 114 118 1.000000
E 114 116 1.000000
E 115 243 1.000000
E 115 123 1.000000
E 115 119 1.000000
E 115 116 1.000000
E 116 244 1.000000
E 116 124 1.000000
E 116 120 1.000000
E 117 245 1.000000
E 117 125 1.000000
E 117 119 1.000000
E 117 118 1.000000
E 118 246 1.000000
E 118 126 1.000000
E 118 120 1.000000
E 119 247 1.000000
E 119 127 1.000000
E 119 120 1.000000
E 120 248 1.000000
E 120 128 1.000000
E 121 249 1.000000
E 121 125 1.000000
E 121 123 1.000000
E 121 122 1.000000
E 122 250 1.000000
E 122 126 1.000000
E 122 124 1.000000
E 123 251 1.000000
E 123 127 1.000000
E 123 124 1.000000
E 124 252 1.000000
E 124 128 1.000000
E 125 253 1.000000
E 125 127 1.000000
E 125 126 1.000000
E 126 254 1.000000
E 126 128 1.000000
E 127 255 1.000000
E 127 128 1.000000
E 128 256 1.000000
E 129 193 1.000000
E 129 161 1.000000
E 129 145 1.000000
E 129 137 1.000000
E 129 133 1.000000
E 129 131 1.000000
E 129 130 1.000000
E 130 194 1.000000
E 130 162 1.000000
E 130 146 1.000000
E 130 138 1.000000
E 130 134 1.000000
E 130 132 1.000000
E 131 195 1.000000
E 131 163 1.000000
E 131 147 1.000000
E 131 139 1.000000
E 131 135 1.000000
E 131 132 1.000000
E 132 196 1.000000
E 132 164 1.000000
E 132 148 1.000000
E 132 140 1.000000
E 132 136 1.000000
E 133 197 1.000000
E 133 165 1.000000
E 133 149 1.000000
E 133 141 1.000000
E 133 135 1.000000
E 133 134 1.000000
E 134 198 1.000000
E 134 166 1.000000
E 134 150 1.000000
E 134 142 1.000000
E 134 136 1.000000
E 135 199 1.000000
E 135 167 1.000000
E 135 151 1.000000
E 135 143 1.000000
E 135 136 1.000000
E 136 200 1.000000
E 136 168 1.000000
E 136 152 1.000000
E 136 144 1.000000
E 137 201 1.000000
E 137 169 1.000000
E 137 153 1.000000
E 137 141 1.000000
E 137 139 1.000000
E 137 138 1.000000
E 138 202 1.000000
E 138 170 1.000000
E 138 154 1.000000
E 138 142 1.000000
E 138 140 1.000000
E 139 203 1.000000
E 139 171 1.000000
E 139 155 1.000000
E 139 143 1.000000
E 139 140 1.000000
E 140 204 1.000000
E 140 172 1.000000
E 140 156 1.000000
E 140 144 1.000000
E 141 205 1.000000
E 141 173 1.000000
E 141 157 1.000000
E 141 143 1.000000
E 141 142 1.000000
E 142 206 1.000000
E 142 174 1.000000
E 142 158 1.000000
E 142 144 1.000000
E 143 207 1.000000
E 143 175 1.000000
E 143 159 1.000000
E 143 144 1.000000
E 144 208 1.000000
E 144 176 1.000000
E 144 160 1.000000
E 145 209 1.000000
E 145 177 1.000000
E 145 153 1.000000
E 145 149 1.000000
E 145 147 1.000000
E 145 146 1.000000
E 146 210 1.000000
E 146 178 1.000000
E 146 154 1.000000
E 146 150 1.000000
E 146 148 1.000000
E 147 211 1.000000
E 147 179 1.000000
E 147 155 1.000000
E 147 151 1.000000
E 147 148 1.000000
E 148 212 1.000000
E 148 180 1.000000
E 148 156 1.000000
E 148 152 1.000000
E 149 213 1.000000
E 149 181 1.000000
E 149 157 1.000000
E 149 151 1.000000
E 149 150 1.000000
E 150 214 1.000000
E 150 182 1.000000
E 150 158 1.000000
E 150 152 1.000000
E 151 215 1.000000
E 151 183 1.000000
E 151 159 1.000000
E 151 152 1.000000
E 152 216 1.000000
E 152 184 1.000000
E 152 160 1.000000
E 153 217 1.000000
E 153 185 1.000000
E 153 157 1.000000
E 153 155 1.000000
E 153 154 1.000000
E 154 218 1.000000
E 154 186 1.000000
E 154 158 1.000000
E 154 156 1.000000
E 155 219 1.000000
E 155 187 1.000000
E 155 159 1.000000
E 155 156 1.000000
E 156 220 1.000000
E 156 188 1.000000
E 156 160 1.000000
E 157 221 1.000000
E 157 189 1.000000
E 157 159 1.000000
E 157 158 1.000000
E 158 222 1.000000
E 158 190 1.000000
E 158 160 1.000000
E 159 223 1.000000
E 159 191 1.000000
E 159 160 1.000000
E 160 224 1.000000
E 160 192 1.000000
E 161 225 1.000000
E 161 177 1.000000
E 161 169 1.000000
E 161 165 1.000000
E 161 163 1.000000
E 161 162 1.000000
E 162 226 1.000000
E 162 178 1.000000
E 162 170 1.000000
E 162 166 1.000000
E 162 164 1.000000
E 163 227 1.000000
E 163 179 1.000000
E 163 171 1.000000
E 163 167 1.000000
E 163 164 1.000000
E 164 228 1.000000
E 164 180 1.000000
E 164 172 1.000000
E 164 168 1.000000
E 165 229 1.000000
E 165 181 1.000000
E 165 173 1.000000
E 165 167 1.000000
E 165 166 1.000000
E 166 230 1.000000
E 166 182 1.000000
E 166 174 1.000000
E 166 168 1.000000
E 167 231 1.000000
E 167 183 1.000000
E 167 175 1.000000
E 167 168 1.000000
E 168 232 1.000000
E 168 184 1.000000
E 168 176 1.000000
E 169 233 1.000000
E 169 185 1.000000
E 169 173 1.000000
E 169 171 1.000000
E 169 170 1.000000
E 170 234 1.000000
E 170 186 1.000000
E 170 174 1.000000
E 170 172 1.000000
E 171 235 1.000000
E 171 187 1.000000
E 171 175 1.000000
E 171 172 1.000000
E 172 236 1.000000
E 172 188 1.000000
E 172 176 1.000000
E 173 237 1.000000
E 173 189 1.000000
E 173 175 1.000000
E 173 174 1.000000
E 174 238 1.000000
E 174 190 1.000000
E 174 176 1.000000
E 175 239 1.000000
E 175 191 1.000000
E 175 176 1.000000
E 176 240 1.000000
E 176 192 1.000000
E 177 241 1.000000
E 177 185 1.000000
E 177 181 1.000000
E 177 179 1.000000
E 177 178 1.000000
E 178 242 1.000000
E 178 186 1.000000
E 178 182 1.000000
E 178 180 1.000000
E 179 243 1.000000
E 179 187 1.000000
E 179 183 1.000000
E 179 180 1.000000
E 180 244 1.000000
E 180 188 1.000000
E 180 184 1.000000
E 181 245 1.000000
E 181 189 1.000000
E 181 183 1.000000
E 181 182 1.000000
E 182 246 1.000000
E 182 190 1.000000
E 182 184 1.000000
E 183 247 1.000000
E 183 191 1.000000
E 183 184 1.000000
E 184 248 1.000000
E 184 192 1.000000
E 185 249 1.000000
E 185 189 1.000000
E 185 187 1.000000
E 185 186 1.000000
E 186 250 1.000000
E 186 190 1.000000
E 186 188 1.000000
E 187 251 1.000000
E 187 191 1.000000
E 187 188 1.000000
E 188 252 1.000000
E 188 192 1.000000
E 189 253 1.000000
E 189 191 1.000000
E 189 190 1.000000
E 190 254 1.000000
E 190 192 1.000000
E 191 255 1.000000
E 191 192 1.000000
E 192 256 1.000000
E 193 225 1.000000
E 193 209 1.000000
E 193 201 1.000000
E 193 197 1.000000
E 193 195 1.000000
E 193 194 1.000000
E 194 226 1.000000
E 194 210 1.000000
E 194 202 1.000000
E 194 198 1.000000
E 194 196 1.000000
E 195 227 1.000000
E 195 211 1.000000
E 195 203 1.000000
E 195 199 1.000000
E 195 196 1.000000
E 196 228 1.000000
E 196 212 1.000000
E 196 204 1.000000
E 196 200 1.000000
E 197 229 1.000000
E 197 213 1.000000
E 197 205 1.000000
E 197 199 1.000000
E 197 198 1.000000
E 198 230 1.000000
E 198 214 1.000000
E 198 206 1.000000
E 198 200 1.000000
E 199 231 1.000000
E 199 215 1.000000
E 199 207 1.000000
E 199 200 1.000000
E 200 232 1.000000
E 200 216 1.000000
E 200 208 1.000000
E 201 233 1.000000
E 201 217 1.000000
E 201 205 1.000000
E 201 203 1.000000
E 201 202 1.000000
E 202 234 1.000000
E 202 218 1.000000
E 202 206 1.000000
E 202 204 1.000000
E 203 235 1.000000
E 203 219 1.000000
E 203 207 1.000000
E 203 204 1.000000
E 204 236 1.000000
E 204 220 1.000000
E 204 208 1.000000
E 205 237 1.000000
E 205 221 1.000000
E 205 207 1.000000
E 205 206 1.000000
E 206 238 1.000000
E 206 222 1.000000
E 206 208 1.000000
E 207 239 1.000000
E 207 223 1.000000
E 207 208 1.000000
E 208 240 1.000000
E 208 224 1.000000
E 209 241 1.000000
E 209 217 1.000000
E 209 213 1.000000
E 209 211 1.000000
E 209 210 1.000000
E 210 242 1.000000
E 210 218 1.000000
E 210 214 1.000000
E 210 212 1.000000
E 211 243 1.000000
E 211 219 1.000000
E 211 215 1.000000
E 211 212 1.000000
E 212 244 1.000000
E 212 220 1.000000
E 212 216 1.000000
E 213 245 1.000000
E 213 221 1.000000
E 213 215 1.000000
E 213 214 1.000000
E 214 246 1.000000
E 214 222 1.000000
E 214 216 1.000000
E 215 247 1.000000
E 215 223 1.000000
E 215 216 1.000000
E 216 248 1.000000
E 216 224 1.000000
E 217 249 1.000000
E 217 221 1.000000
E 217 219 1.000000
E 217 218 1.000000
E 218 250 1.000000
E 218 222 1.000000
E 218 220 1.000000
E 219 251 1.000000
E 219 223 1.000000
E 219 220 1.000000
E 220 252 1.000000
E 220 224 1.000000
E 221 253 1.000000
E 221 223 1.000000
E 221 222 1.000000
E 222 254 1.000000
E 222 224 1.000000
E 223 255 1.000000
E 223 224 1.000000
E 224 256 1.000000
E 225 241 1.000000
E 225 233 1.000000
E 225 229 1.000000
E 225 227 1.000000
E 225 226 1.000000
E 226 242 1.000000
E 226 234 1.000000
E 226 230 1.000000
E 226 228 1.000000
E 227 243 1.000000
E 227 235 1.000000
E 227 231 1.000000
E 227 228 1.000000
E 228 244 1.000000
E 228 236 1.000000
E 228 232 1.000000
E 229 245 1.000000
E 229 237 1.000000
E 229 231 1.000000
E 229 230 1.000000
E 230 246 1.000000
E 230 238 1.000000
E 230 232 1.000000
E 231 247 1.000000
E 231 239 1.000000
E 231 232 1.000000
E 232 248 1.000000
E 232 240 1.000000
E 233 249 1.000000
E 233 237 1.000000
E 233 235 1.000000
E 233 234 1.000000
E 234 250 1.000000
E 234 238 1.000000
E 234 236 1.000000
E 235 251 1.000000
E 235 239 1.000000
E 235 236 1.000000
E 236 252 1.000000
E 236 240 1.000000
E 237 253 1.000000
E 237 239 1.000000
E 237 238 1.000000
E 238 254 1.000000
E 238 240 1.000000
E 239 255 1.000000
E 239 240 1.000000
E 240 256 1.000000
E 241 249 1.000000
E 241 245 1.000000
E 241 243 1.000000
E 241 242 1.000000
E 242 250 1.000000
E 242 246 1.000000
E 242 244 1.000000
E 243 251 1.000000
E 243 247 1.000000
E 243 244 1.000000
E 244 252 1.000000
E 244 248 1.000000
E 245 253 1.000000
E 245 247 1.000000
E 245 246 1.000000
E 246 254 1.000000
E 246 248 1.000000
E 247 255 1.000000
E 247 248 1.000000
E 248 256 1.000000
E 249 253 1.000000
E 249 251 1.000000
E 249 250 1.000000
E 250 254 1.000000
E 250 252 1.000000
E 251 255 1.000000
E 251 252 1.000000
E 252 256 1.000000
E 253 255 1.000000
E 253 254 1.000000
E 254 256 1.000000
E 255 256 1.000000
END

SECTION Terminals
Terminals 256
TP 1 2
TP 2 0
TP 3 0
TP 4 2
TP 5 0
TP 6 2
TP 7 2
TP 8 0
TP 9 0
TP 10 1
TP 11 2
TP 12 0
TP 13 2
TP 14 0
TP 15 0
TP 16 2
TP 17 0
TP 18 2
TP 19 1
TP 20 0
TP 21 2
TP 22 0
TP 23 0
TP 24 2
TP 25 1
TP 26 0
TP 27 0
TP 28 1
TP 29 0
TP 30 2
TP 31 1
TP 32 0
TP 33 0
TP 34 1
TP 35 1
TP 36 0
TP 37 1
TP 38 0
TP 39 0
TP 40 2
TP 41 1
TP 42 0
TP 43 0
TP 44 1
TP 45 0
TP 46 1
TP 47 2
TP 48 0
TP 49 1
TP 50 0
TP 51 0
TP 52 2
TP 53 0
TP 54 2
TP 55 2
TP 56 0
TP 57 0
TP 58 1
TP 59 2
TP 60 0
TP 61 2
TP 62 0
TP 63 0
TP 64 2
TP 65 0
TP 66 2
TP 67 1
TP 68 0
TP 69 1
TP 70 0
TP 71 0
TP 72 1
TP 73 2
TP 74 0
TP 75 0
TP 76 2
TP 77 0
TP 78 2
TP 79 2
TP 80 0
TP 81 2
TP 82 0
TP 83 0
TP 84 2
TP 85 0
TP 86 2
TP 87 2
TP 88 0
TP 89 0
TP 90 2
TP 91 1
TP 92 0
TP 93 1
TP 94 0
TP 95 0
TP 96 2
TP 97 2
TP 98 0
TP 99 0
TP 100 1
TP 101 0
TP 102 1
TP 103 1
TP 104 0
TP 105 0
TP 106 1
TP 107 1
TP 108 0
TP 109 1
TP 110 0
TP 111 0
TP 112 1
TP 113 0
TP 114 2
TP 115 1
TP 116 0
TP 117 2
TP 118 0
TP 119 0
TP 120 2
TP 121 1
TP 122 0
TP 123 0
TP 124 2
TP 125 0
TP 126 2
TP 127 1
TP 128 0
TP 129 0
TP 130 1
TP 131 1
TP 132 0
TP 133 2
TP 134 0
TP 135 0
TP 136 2
TP 137 2
TP 138 0
TP 139 0
TP 140 2
TP 141 0
TP 142 1
TP 143 2
TP 144 0
TP 145 2
TP 146 0
TP 147 0
TP 148 2
TP 149 0
TP 150 1
TP 151 1
TP 152 0
TP 153 0
TP 154 1
TP 155 1
TP 156 0
TP 157 1
TP 158 0
TP 159 0
TP 160 2
TP 161 1
TP 162 0
TP 163 0
TP 164 1
TP 165 0
TP 166 1
TP 167 1
TP 168 0
TP 169 0
TP 170 2
TP 171 1
TP 172 0
TP 173 1
TP 174 0
TP 175 0
TP 176 2
TP 177 0
TP 178 2
TP 179 1
TP 180 0
TP 181 2
TP 182 0
TP 183 0
TP 184 2
TP 185 1
TP 186 0
TP 187 0
TP 188 1
TP 189 0
TP 190 2
TP 191 1
TP 192 0
TP 193 1
TP 194 0
TP 195 0
TP 196 1
TP 197 0
TP 198 1
TP 199 1
TP 200 0
TP 201 0
TP 202 1
TP 203 2
TP 204 0
TP 205 2
TP 206 0
TP 207 0
TP 208 2
TP 209 0
TP 210 1
TP 211 2
TP 212 0
TP 213 1
TP 214 0
TP 215 0
TP 216 2
TP 217 2
TP 218 0
TP 219 0
TP 220 2
TP 221 0
TP 222 2
TP 223 1
TP 224 0
TP 225 0
TP 226 2
TP 227 1
TP 228 0
TP 229 2
TP 230 0
TP 231 0
TP 232 2
TP 233 1
TP 234 0
TP 235 0
TP 236 1
TP 237 0
TP 238 2
TP 239 2
TP 240 0
TP 241 2
TP 242 0
TP 243 0
TP 244 1
TP 245 0
TP 246 2
TP 247 1
TP 248 0
TP 249 0
TP 250 1
TP 251 2
TP 252 0
TP 253 1
TP 254 0
TP 255 0
TP 256 2
END

EOF
